k-points along high symmetry lines
 100  ! 10 intersections 
Line-mode
rec
  0.0  0.0  0.0
  0.5  0.5  0.0

  0.5  0.5  0.0
  0.25  0.75  0.25

  0.25  0.75  0.25
  0.5  0.5  0.5

  0.5  0.5  0.5
  0.375  0.375  0.75

